c description: Pigeonhole principle formula for 3 pigeons and 3 holes
c generator: CNFgen (0.9.2)
c copyright: (C) 2012-2022 Massimo Lauria <massimo.lauria@uniroma1.it>
c url: https://massimolauria.net/cnfgen
c command line: cnfgen --varnames --output php_3p3h.cnf php 3 3
c
c varname 1 p_{1,1}
c varname 2 p_{1,2}
c varname 3 p_{1,3}
c varname 4 p_{2,1}
c varname 5 p_{2,2}
c varname 6 p_{2,3}
c varname 7 p_{3,1}
c varname 8 p_{3,2}
c varname 9 p_{3,3}
c
p cnf 9 12
1 2 3 0
4 5 6 0
7 8 9 0
-1 -4 0
-1 -7 0
-4 -7 0
-2 -5 0
-2 -8 0
-5 -8 0
-3 -6 0
-3 -9 0
-6 -9 0
